Maximize
  obj: 0 x0  +  0 x1  +  0 x2  +  0 x3  +  0 x4  +  0 x5  +  0 x6  +  0 x7  +  0 x8  +  0 x9  +  0 x10  +  0 x11  +  0 x12  +  0 x13  +  0 x14  +  0 x15  +  0 x16  +  0 x17  +  0 x18  +  0 x19  +  0 x20  +  0 x21  +  0 x22  +  0 x23  +  0 x24  +  0 x25  +  0 x26  +  0 x27  +  0 x28  +  0 x29  +  0 x30  +  0 x31  +  0 x32  +  0 x33  +  0 x34  +  0 x35  +  0 x36  +  0 x37  +  0 x38  +  0 x39  +  83.00000000 x40  +  12.00000000 x41  -112.00000000 x42  +  64.00000000 x43  -45.00000000 x44  -13.00000000 x45  +  6.00000000 x46  -114.00000000 x47  +  138.00000000 x48  -65.00000000 x49  +  152.00000000 x50  +  190.00000000 x51  +  149.00000000 x52  +  127.00000000 x53  -111.00000000 x54  +  76.00000000 x55  -89.00000000 x56  -19.00000000 x57  -65.00000000 x58  -100.00000000 x59  +  93.00000000 x60  +  17.00000000 x61  -124.00000000 x62  +  124.00000000 x63  -90.00000000 x64  +  190.00000000 x65  +  80.00000000 x66  +  153.00000000 x67  +  7.00000000 x68  +  12.00000000 x69  -148.00000000 x70  -38.00000000 x71  -104.00000000 x72  -60.00000000 x73  -102.00000000 x74  +  51.00000000 x75  +  200.00000000 x76  +  105.00000000 x77  +  137.00000000 x78  +  138.00000000 x79 
Subject to
  c1: +0 x0 +0 x1 +0 x2 -1 x3 +0 x4 +0 x5 +13 x6 +5 x7 +18 x8 +8 x9 +0 x10 +0 x11 +14 x12 +0 x13 +20 x14 +0 x15 +0 x16 +0 x17 +0 x18 +9 x19 +0 x20 +8 x21 +17 x22 +0 x23 +20 x24 +0 x25 +0 x26 +0 x27 +16 x28 +10 x29 +7 x30 +0 x31 +0 x32 +1 x33 +11 x34 +0 x35 +0 x36 +0 x37 +14 x38 +7 x39 +9 x40 <= 99
  c2: +0 x0 +0 x1 +0 x2 +0 x3 +0 x4 +0 x5 +5 x6 +11 x7 +0 x8 +0 x9 +0 x10 +13 x11 +12 x12 +0 x13 +0 x14 +3 x15 +0 x16 +7 x17 +0 x18 +7 x19 +0 x20 +20 x21 +7 x22 +5 x23 +0 x24 +3 x25 +0 x26 +0 x27 +0 x28 +0 x29 +1 x30 -1 x31 +0 x32 +0 x33 +0 x34 +0 x35 +0 x36 +8 x37 +8 x38 +18 x39 +10 x41 <= 58
  c3: +9 x0 +18 x1 +12 x2 +17 x3 +8 x4 +0 x5 +18 x6 +0 x7 +0 x8 +0 x9 +0 x10 +0 x11 +0 x12 +0 x13 +0 x14 +0 x15 +4 x16 +0 x17 +0 x18 +10 x19 +0 x20 +0 x21 +0 x22 +0 x23 +0 x24 +16 x25 +0 x26 +1 x27 +13 x28 +0 x29 +0 x30 +0 x31 +10 x32 -1 x33 +0 x34 +7 x35 +0 x36 +16 x37 +19 x38 +1 x39 +9 x42 <= 93
  c4: +4 x0 +20 x1 +1 x2 +15 x3 +5 x4 +13 x5 +15 x6 +0 x7 +0 x8 +0 x9 +19 x10 +0 x11 +11 x12 +4 x13 +2 x14 +0 x15 +15 x16 +0 x17 +0 x18 -1 x19 +10 x20 +0 x21 +0 x22 +0 x23 +0 x24 +0 x25 +8 x26 +0 x27 +12 x28 +12 x29 +0 x30 +17 x31 +0 x32 +2 x33 +0 x34 +19 x35 +0 x36 +18 x37 +18 x38 +0 x39 -1 x43 <= 52
  c5: +0 x0 +0 x1 +0 x2 +0 x3 +0 x4 +0 x5 +0 x6 +0 x7 +0 x8 +4 x9 +11 x10 +7 x11 +12 x12 +0 x13 +18 x14 +0 x15 +2 x16 +0 x17 +0 x18 +15 x19 +0 x20 +10 x21 +2 x22 +8 x23 +1 x24 +4 x25 +0 x26 +0 x27 +19 x28 +14 x29 +0 x30 +19 x31 +0 x32 +0 x33 +5 x34 +0 x35 +0 x36 +10 x37 +0 x38 +16 x39 +10 x44 <= 61
  c6: +7 x0 +0 x1 +0 x2 +0 x3 +0 x4 +0 x5 -1 x6 +0 x7 +19 x8 +19 x9 +0 x10 +0 x11 -1 x12 +16 x13 +0 x14 +0 x15 +0 x16 -1 x17 +0 x18 +0 x19 +0 x20 +0 x21 -1 x22 +0 x23 +11 x24 +20 x25 +0 x26 +13 x27 +0 x28 +0 x29 +9 x30 +0 x31 +0 x32 +0 x33 +1 x34 +0 x35 +6 x36 +16 x37 +1 x38 +0 x39 +9 x45 <= 64
  c7: +4 x0 +14 x1 +0 x2 +0 x3 +0 x4 +0 x5 +0 x6 +1 x7 +4 x8 +0 x9 +5 x10 +0 x11 +0 x12 +10 x13 +0 x14 +0 x15 +13 x16 +19 x17 +0 x18 +20 x19 +0 x20 +0 x21 +0 x22 -1 x23 +0 x24 +0 x25 +18 x26 +8 x27 +0 x28 +8 x29 +14 x30 +0 x31 +16 x32 +12 x33 +1 x34 +0 x35 +14 x36 +0 x37 +0 x38 +11 x39 +13 x46 <= 92
  c8: +0 x0 +0 x1 +0 x2 +0 x3 +0 x4 +0 x5 +0 x6 +0 x7 +3 x8 +0 x9 +12 x10 +0 x11 +0 x12 +11 x13 +0 x14 +0 x15 +0 x16 +11 x17 +12 x18 +0 x19 +0 x20 +5 x21 +12 x22 +0 x23 +10 x24 +0 x25 +0 x26 +2 x27 +0 x28 +0 x29 +0 x30 +4 x31 +0 x32 +0 x33 +3 x34 +0 x35 +0 x36 +0 x37 +14 x38 +16 x39 +18 x47 <= 89
  c9: +0 x0 +1 x1 +0 x2 +0 x3 +16 x4 +0 x5 +7 x6 +0 x7 +7 x8 +10 x9 +0 x10 +0 x11 +0 x12 +0 x13 +0 x14 +0 x15 +0 x16 +14 x17 +9 x18 +15 x19 +10 x20 +0 x21 +18 x22 +7 x23 +0 x24 +0 x25 +2 x26 +0 x27 +0 x28 +0 x29 +0 x30 +0 x31 +0 x32 +0 x33 +3 x34 +0 x35 +12 x36 +9 x37 +0 x38 +0 x39 +5 x48 <= 54
  c10: +0 x0 +10 x1 +0 x2 +1 x3 +20 x4 +0 x5 +5 x6 +0 x7 +17 x8 +16 x9 +5 x10 +3 x11 +0 x12 +3 x13 +4 x14 +18 x15 +0 x16 +0 x17 +2 x18 +9 x19 +10 x20 +0 x21 +0 x22 +8 x23 +8 x24 +0 x25 +14 x26 +18 x27 +0 x28 +0 x29 +0 x30 +0 x31 +3 x32 +5 x33 +0 x34 +0 x35 +0 x36 +0 x37 +0 x38 +19 x39 +14 x49 <= 52
  c11: +0 x0 +20 x1 +0 x2 +0 x3 +0 x4 +16 x5 +0 x6 +0 x7 +0 x8 +4 x9 -1 x10 +13 x11 +9 x12 +2 x13 +14 x14 +0 x15 +2 x16 +9 x17 +0 x18 +8 x19 +0 x20 +0 x21 +13 x22 -1 x23 +0 x24 +0 x25 +4 x26 +4 x27 +18 x28 +1 x29 +0 x30 +6 x31 +11 x32 +0 x33 +0 x34 +0 x35 +14 x36 +0 x37 +0 x38 +5 x39 +12 x50 <= 75
  c12: +0 x0 +13 x1 +14 x2 +0 x3 +0 x4 +6 x5 +0 x6 +0 x7 +20 x8 +7 x9 +0 x10 +0 x11 +0 x12 +0 x13 +4 x14 +0 x15 +0 x16 +3 x17 +13 x18 +0 x19 +17 x20 +10 x21 +0 x22 +0 x23 +0 x24 +1 x25 +8 x26 +0 x27 +6 x28 +7 x29 +0 x30 +0 x31 +18 x32 +8 x33 +5 x34 +0 x35 +0 x36 -1 x37 +0 x38 +13 x39 +13 x51 <= 88
  c13: +9 x0 +6 x1 +17 x2 +0 x3 +0 x4 +0 x5 -1 x6 +0 x7 +18 x8 +0 x9 +4 x10 +0 x11 +0 x12 +0 x13 +9 x14 +12 x15 +20 x16 +0 x17 +0 x18 +0 x19 +0 x20 +0 x21 +0 x22 +0 x23 +13 x24 +1 x25 +0 x26 +0 x27 +0 x28 +0 x29 +0 x30 +0 x31 +19 x32 +19 x33 +13 x34 +9 x35 +0 x36 +10 x37 +11 x38 +0 x39 +8 x52 <= 81
  c14: +6 x0 +0 x1 +0 x2 +13 x3 +12 x4 +6 x5 +0 x6 -1 x7 +14 x8 +0 x9 +17 x10 +0 x11 +6 x12 +0 x13 +0 x14 +7 x15 +10 x16 +0 x17 +9 x18 +0 x19 +11 x20 +0 x21 +0 x22 +11 x23 +0 x24 +6 x25 +14 x26 +1 x27 +0 x28 +0 x29 +0 x30 +0 x31 +0 x32 +18 x33 +0 x34 +0 x35 +0 x36 +15 x37 +17 x38 +15 x39 +8 x53 <= 91
  c15: +1 x0 +0 x1 +18 x2 +12 x3 +2 x4 +8 x5 +8 x6 +10 x7 +0 x8 +0 x9 +15 x10 +0 x11 +12 x12 +16 x13 +6 x14 +0 x15 +0 x16 +0 x17 +0 x18 +0 x19 +0 x20 +0 x21 +16 x22 +0 x23 +1 x24 +0 x25 +9 x26 +0 x27 +0 x28 +17 x29 +0 x30 +0 x31 +16 x32 +0 x33 +0 x34 +4 x35 +14 x36 +0 x37 +13 x38 +8 x39 +9 x54 <= 82
  c16: +8 x0 +0 x1 +0 x2 +13 x3 +0 x4 +0 x5 +20 x6 +16 x7 +0 x8 +0 x9 +6 x10 +0 x11 +13 x12 +0 x13 +0 x14 +5 x15 +0 x16 +2 x17 +0 x18 +0 x19 +7 x20 +0 x21 +0 x22 -1 x23 +0 x24 +0 x25 +0 x26 +3 x27 +0 x28 +0 x29 +0 x30 +5 x31 +0 x32 +0 x33 +0 x34 +12 x35 +0 x36 +0 x37 +0 x38 +18 x39 +15 x55 <= 57
  c17: +9 x0 +10 x1 +0 x2 +8 x3 +0 x4 +0 x5 +0 x6 +18 x7 +4 x8 +0 x9 +0 x10 +14 x11 +0 x12 +7 x13 +5 x14 +0 x15 +2 x16 +17 x17 +10 x18 +0 x19 +11 x20 +0 x21 +0 x22 +9 x23 +0 x24 +0 x25 +0 x26 +9 x27 +0 x28 +0 x29 +1 x30 +0 x31 +0 x32 +0 x33 -1 x34 +0 x35 +0 x36 +0 x37 +10 x38 +10 x39 +11 x56 <= 87
  c18: +0 x0 +0 x1 +0 x2 +0 x3 +3 x4 +0 x5 +0 x6 +7 x7 +0 x8 +20 x9 +0 x10 +0 x11 -1 x12 +0 x13 +0 x14 +8 x15 +9 x16 +0 x17 +4 x18 +0 x19 +18 x20 +0 x21 -1 x22 +9 x23 +12 x24 +0 x25 +5 x26 +11 x27 +0 x28 +0 x29 +0 x30 +13 x31 +0 x32 +4 x33 +0 x34 -1 x35 +0 x36 +0 x37 +9 x38 +11 x39 +8 x57 <= 63
  c19: +0 x0 +0 x1 -1 x2 +4 x3 +0 x4 +5 x5 +0 x6 +4 x7 +19 x8 +0 x9 +0 x10 +18 x11 +3 x12 +0 x13 +0 x14 +6 x15 +1 x16 +0 x17 +0 x18 +0 x19 +0 x20 -1 x21 +15 x22 +14 x23 +0 x24 +0 x25 +8 x26 +4 x27 +0 x28 +0 x29 +10 x30 +17 x31 +13 x32 +0 x33 +0 x34 +10 x35 +5 x36 +0 x37 +0 x38 +0 x39 +2 x58 <= 63
  c20: +0 x0 +0 x1 +0 x2 +19 x3 +12 x4 +0 x5 +0 x6 +0 x7 +9 x8 +0 x9 +0 x10 +0 x11 +9 x12 +20 x13 +0 x14 +7 x15 +0 x16 +16 x17 +16 x18 +0 x19 +12 x20 +0 x21 +0 x22 +0 x23 +15 x24 +0 x25 +0 x26 +0 x27 +0 x28 +0 x29 +12 x30 +0 x31 +17 x32 +0 x33 +5 x34 +4 x35 +3 x36 +2 x37 +17 x38 +0 x39 +4 x59 <= 66
  c21: +0 x0 +0 x1 +0 x2 +0 x3 +7 x4 +12 x5 +0 x6 +0 x7 +20 x8 +1 x9 +0 x10 +0 x11 -1 x12 +7 x13 +0 x14 +0 x15 +0 x16 +0 x17 +10 x18 +12 x19 +0 x20 +15 x21 +8 x22 +0 x23 +0 x24 +5 x25 +10 x26 +0 x27 +5 x28 +0 x29 +12 x30 +0 x31 +0 x32 +4 x33 +0 x34 +2 x35 +0 x36 +0 x37 +0 x38 +0 x39 +20 x60 <= 55
  c22: +9 x0 +10 x1 +0 x2 +3 x3 +0 x4 +0 x5 +20 x6 +6 x7 +16 x8 +0 x9 +0 x10 +0 x11 +10 x12 +10 x13 +0 x14 +10 x15 +0 x16 +0 x17 +2 x18 +0 x19 +0 x20 +0 x21 +12 x22 -1 x23 +8 x24 +18 x25 +18 x26 +0 x27 +0 x28 +17 x29 +0 x30 +0 x31 +0 x32 +16 x33 +0 x34 +1 x35 +0 x36 +16 x37 +0 x38 +0 x39 +9 x61 <= 90
  c23: +0 x0 +0 x1 +0 x2 +0 x3 +2 x4 +5 x5 +15 x6 +0 x7 +0 x8 +0 x9 +0 x10 +0 x11 +0 x12 +13 x13 +20 x14 +7 x15 +0 x16 +1 x17 +0 x18 +0 x19 +0 x20 +16 x21 +4 x22 +0 x23 +16 x24 +0 x25 +0 x26 +12 x27 +0 x28 +9 x29 +0 x30 +0 x31 -1 x32 +0 x33 +18 x34 +0 x35 +0 x36 +0 x37 +0 x38 +0 x39 +11 x62 <= 79
  c24: +0 x0 +20 x1 +13 x2 +0 x3 +13 x4 +0 x5 +0 x6 +0 x7 +2 x8 +0 x9 +19 x10 +17 x11 +5 x12 +0 x13 +0 x14 +15 x15 +0 x16 +0 x17 +0 x18 -1 x19 +0 x20 +0 x21 +8 x22 +0 x23 +0 x24 +15 x25 +0 x26 +3 x27 +3 x28 +4 x29 +3 x30 +0 x31 +19 x32 +0 x33 +7 x34 -1 x35 +0 x36 +0 x37 +0 x38 +0 x39 +6 x63 <= 52
  c25: +16 x0 +0 x1 +0 x2 +3 x3 +0 x4 +19 x5 +0 x6 +0 x7 +11 x8 +0 x9 +16 x10 +18 x11 +0 x12 +0 x13 +0 x14 +0 x15 +17 x16 +0 x17 +16 x18 +0 x19 +16 x20 +0 x21 +0 x22 +14 x23 +0 x24 +0 x25 +0 x26 +0 x27 +0 x28 +13 x29 +0 x30 +7 x31 +11 x32 +0 x33 +0 x34 +19 x35 +2 x36 +0 x37 +16 x38 +19 x39 +10 x64 <= 86
  c26: +0 x0 +6 x1 +15 x2 +0 x3 +1 x4 +0 x5 +0 x6 +0 x7 +8 x8 +0 x9 +0 x10 +0 x11 +4 x12 +11 x13 +0 x14 +18 x15 +5 x16 +12 x17 +16 x18 +0 x19 +0 x20 -1 x21 +15 x22 +0 x23 +13 x24 +9 x25 +15 x26 +0 x27 +0 x28 +11 x29 +0 x30 +20 x31 +0 x32 +5 x33 +0 x34 +20 x35 +0 x36 +16 x37 +0 x38 +0 x39 +20 x65 <= 71
  c27: +0 x0 +0 x1 +10 x2 +0 x3 +9 x4 +0 x5 +0 x6 +0 x7 +0 x8 +0 x9 +16 x10 +20 x11 +0 x12 +0 x13 +6 x14 +0 x15 +0 x16 +0 x17 +0 x18 +8 x19 +0 x20 +10 x21 -1 x22 +0 x23 +0 x24 +0 x25 +0 x26 +0 x27 +10 x28 +2 x29 +9 x30 +0 x31 +1 x32 +19 x33 +15 x34 +11 x35 +0 x36 +0 x37 +16 x38 +9 x39 +17 x66 <= 57
  c28: +0 x0 +13 x1 +0 x2 +0 x3 +0 x4 +3 x5 +1 x6 +0 x7 +15 x8 +12 x9 +5 x10 +5 x11 +0 x12 +0 x13 +0 x14 +16 x15 +3 x16 +0 x17 +0 x18 +6 x19 +8 x20 +5 x21 +13 x22 +2 x23 +0 x24 +6 x25 -1 x26 +8 x27 +18 x28 +11 x29 +2 x30 +0 x31 +7 x32 +18 x33 +0 x34 +0 x35 +3 x36 +0 x37 +3 x38 +0 x39 +2 x67 <= 100
  c29: +0 x0 +9 x1 +0 x2 +13 x3 +0 x4 +14 x5 +0 x6 +11 x7 +0 x8 +0 x9 +0 x10 +0 x11 +0 x12 +0 x13 +0 x14 +0 x15 +2 x16 +6 x17 +18 x18 +9 x19 +0 x20 +0 x21 +13 x22 -1 x23 +0 x24 +0 x25 +0 x26 +0 x27 +0 x28 +0 x29 +0 x30 +0 x31 +20 x32 +0 x33 +0 x34 +0 x35 +5 x36 +0 x37 +0 x38 +14 x39 +12 x68 <= 60
  c30: +18 x0 +0 x1 +6 x2 +0 x3 +0 x4 +0 x5 +13 x6 +8 x7 +0 x8 +16 x9 +2 x10 +0 x11 +13 x12 +2 x13 +16 x14 +6 x15 +1 x16 +16 x17 +10 x18 +0 x19 +0 x20 +11 x21 +0 x22 +0 x23 +0 x24 +0 x25 +15 x26 +6 x27 +0 x28 +0 x29 +0 x30 +0 x31 +15 x32 +0 x33 +13 x34 +0 x35 +0 x36 +0 x37 +2 x38 +0 x39 +1 x69 <= 57
  c31: +0 x0 +0 x1 +0 x2 +14 x3 +18 x4 +0 x5 +10 x6 +4 x7 +0 x8 +0 x9 +0 x10 +0 x11 +0 x12 +8 x13 +0 x14 +0 x15 +0 x16 +12 x17 +0 x18 +5 x19 +0 x20 +11 x21 +1 x22 +0 x23 +8 x24 +0 x25 +0 x26 +17 x27 +13 x28 +0 x29 +0 x30 +0 x31 +0 x32 +1 x33 +5 x34 +12 x35 +8 x36 +2 x37 +0 x38 +0 x39 -1 x70 <= 61
  c32: +0 x0 +0 x1 +17 x2 +0 x3 +5 x4 +0 x5 +2 x6 +6 x7 +0 x8 +8 x9 +15 x10 +6 x11 -1 x12 +0 x13 +0 x14 +0 x15 +0 x16 +0 x17 +10 x18 +0 x19 +0 x20 +0 x21 +5 x22 +10 x23 +0 x24 +0 x25 +0 x26 +0 x27 +0 x28 +4 x29 +0 x30 +0 x31 +12 x32 +12 x33 +1 x34 +0 x35 +0 x36 +0 x37 +0 x38 +0 x39 +13 x71 <= 58
  c33: +0 x0 +10 x1 +0 x2 +0 x3 +0 x4 +0 x5 +13 x6 +0 x7 +0 x8 +0 x9 +0 x10 +0 x11 +20 x12 +0 x13 +0 x14 +0 x15 +0 x16 +17 x17 +16 x18 +19 x19 +0 x20 -1 x21 +6 x22 +19 x23 +0 x24 +2 x25 +0 x26 +17 x27 +15 x28 +0 x29 +14 x30 +0 x31 +9 x32 +16 x33 +0 x34 +0 x35 +16 x36 +0 x37 +0 x38 +6 x39 +8 x72 <= 90
  c34: +6 x0 +8 x1 +15 x2 +9 x3 +13 x4 +14 x5 +0 x6 +0 x7 +0 x8 +4 x9 +6 x10 +16 x11 +0 x12 +11 x13 +0 x14 +0 x15 +0 x16 +0 x17 +15 x18 +10 x19 +0 x20 +5 x21 +0 x22 +0 x23 +0 x24 +20 x25 +4 x26 +16 x27 +10 x28 +0 x29 +19 x30 +13 x31 +0 x32 +0 x33 +2 x34 +14 x35 +16 x36 +19 x37 +0 x38 +0 x39 +19 x73 <= 53
  c35: +0 x0 +0 x1 +7 x2 +5 x3 +0 x4 +0 x5 +0 x6 +0 x7 +0 x8 +9 x9 +17 x10 +0 x11 +0 x12 +0 x13 +11 x14 +0 x15 +6 x16 -1 x17 +0 x18 +0 x19 +0 x20 +0 x21 +0 x22 +0 x23 +0 x24 +0 x25 +19 x26 +0 x27 +9 x28 +6 x29 +5 x30 +13 x31 +0 x32 -1 x33 +0 x34 +15 x35 +0 x36 +0 x37 +3 x38 +6 x39 +18 x74 <= 85
  c36: +8 x0 +0 x1 -1 x2 +0 x3 +4 x4 +13 x5 +0 x6 +20 x7 +0 x8 +0 x9 +0 x10 +0 x11 +0 x12 +1 x13 +6 x14 +0 x15 +13 x16 +0 x17 +0 x18 +16 x19 +0 x20 +15 x21 +0 x22 +0 x23 +0 x24 +0 x25 +0 x26 +2 x27 +17 x28 +0 x29 +0 x30 +0 x31 +1 x32 +0 x33 +0 x34 +13 x35 +0 x36 +14 x37 +13 x38 +0 x39 +11 x75 <= 50
  c37: +19 x0 -1 x1 +14 x2 +11 x3 +0 x4 +9 x5 +5 x6 +0 x7 +14 x8 +18 x9 +7 x10 +0 x11 +7 x12 +11 x13 +18 x14 +9 x15 +0 x16 +4 x17 +0 x18 +17 x19 +0 x20 +17 x21 +7 x22 +0 x23 +6 x24 -1 x25 +0 x26 +0 x27 +4 x28 +0 x29 +0 x30 -1 x31 +0 x32 +0 x33 +17 x34 +20 x35 +0 x36 +11 x37 +16 x38 +0 x39 +17 x76 <= 92
  c38: +19 x0 +0 x1 +0 x2 +17 x3 +14 x4 +17 x5 +20 x6 +4 x7 +14 x8 +7 x9 +0 x10 +0 x11 +1 x12 +0 x13 +0 x14 +11 x15 +0 x16 +17 x17 +0 x18 +0 x19 +0 x20 +6 x21 +0 x22 +0 x23 +0 x24 +8 x25 +0 x26 +15 x27 +0 x28 +17 x29 +7 x30 +0 x31 +6 x32 +0 x33 +0 x34 +0 x35 +0 x36 +10 x37 +0 x38 +6 x39 +1 x77 <= 76
  c39: +20 x0 +0 x1 +20 x2 +7 x3 +0 x4 +0 x5 +0 x6 +0 x7 +0 x8 +17 x9 +0 x10 +0 x11 +0 x12 +16 x13 +0 x14 +0 x15 +0 x16 +12 x17 +0 x18 +14 x19 +0 x20 +7 x21 +1 x22 +15 x23 +0 x24 -1 x25 +0 x26 +20 x27 +11 x28 +0 x29 +17 x30 +0 x31 +6 x32 +0 x33 +0 x34 +4 x35 +0 x36 +19 x37 +0 x38 +0 x39 +5 x78 <= 89
  c40: +20 x0 +0 x1 +0 x2 +0 x3 +4 x4 +11 x5 -1 x6 +0 x7 +0 x8 +0 x9 +18 x10 +0 x11 +10 x12 +0 x13 +3 x14 +0 x15 +10 x16 +0 x17 +0 x18 +20 x19 +0 x20 +0 x21 +0 x22 +0 x23 +0 x24 +0 x25 +8 x26 +15 x27 +0 x28 +0 x29 +13 x30 +13 x31 +0 x32 +20 x33 +0 x34 +17 x35 +0 x36 +7 x37 +0 x38 +0 x39 +8 x79 <= 96
  c41: +0 x0 +6 x1 +19 x2 +12 x3 +0 x4 +18 x5 +12 x6 +0 x7 +0 x8 +0 x9 +9 x10 +0 x11 +0 x12 +5 x13 +0 x14 +0 x15 +0 x16 +1 x17 -1 x18 +19 x19 +0 x20 +0 x21 +0 x22 +0 x23 +0 x24 +15 x25 +6 x26 +0 x27 +0 x28 +0 x29 +0 x30 +3 x31 +0 x32 +0 x33 +20 x34 +16 x35 +0 x36 +6 x37 +1 x38 +4 x39 <= 78
  c42: +0 x0 +17 x1 +0 x2 +10 x3 +0 x4 +0 x5 +17 x6 +10 x7 +0 x8 -1 x9 +5 x10 +12 x11 +9 x12 +0 x13 +7 x14 +0 x15 +10 x16 +0 x17 +11 x18 +14 x19 +0 x20 +0 x21 +1 x22 +0 x23 +13 x24 +12 x25 +0 x26 -1 x27 +0 x28 +5 x29 +0 x30 +0 x31 +14 x32 +0 x33 +18 x34 +0 x35 -1 x36 +0 x37 +20 x38 +0 x39 <= 89
  c43: +6 x0 +0 x1 +13 x2 +13 x3 +0 x4 +17 x5 +0 x6 +0 x7 +0 x8 +6 x9 +0 x10 +3 x11 +0 x12 +0 x13 +0 x14 -1 x15 +14 x16 +0 x17 +0 x18 +0 x19 -1 x20 +0 x21 +18 x22 +0 x23 +0 x24 +0 x25 +0 x26 +7 x27 +9 x28 +0 x29 +0 x30 +5 x31 +0 x32 +7 x33 +2 x34 +8 x35 +0 x36 +0 x37 +0 x38 +4 x39 <= 58
  c44: +13 x0 +17 x1 +0 x2 +0 x3 +0 x4 +10 x5 +9 x6 +0 x7 +12 x8 +0 x9 +18 x10 +11 x11 +8 x12 +19 x13 +2 x14 +4 x15 +4 x16 +0 x17 +18 x18 +4 x19 +0 x20 +0 x21 +0 x22 +0 x23 +0 x24 +10 x25 +0 x26 +9 x27 +0 x28 +0 x29 +0 x30 +0 x31 +0 x32 +4 x33 +19 x34 +0 x35 +0 x36 +7 x37 +0 x38 +8 x39 <= 83
  c45: +11 x0 +0 x1 +0 x2 +0 x3 +0 x4 +14 x5 +10 x6 +0 x7 +0 x8 +20 x9 +0 x10 +0 x11 +0 x12 +0 x13 +0 x14 +0 x15 +8 x16 +0 x17 +0 x18 +0 x19 +0 x20 +1 x21 +8 x22 +0 x23 +6 x24 +1 x25 +0 x26 -1 x27 +7 x28 +0 x29 +8 x30 +0 x31 +0 x32 +10 x33 +6 x34 +19 x35 +20 x36 +0 x37 +0 x38 +0 x39 <= 53
  c46: +0 x0 +0 x1 +0 x2 +0 x3 +0 x4 +4 x5 +6 x6 -1 x7 +13 x8 +0 x9 +8 x10 +17 x11 +19 x12 +9 x13 +16 x14 +7 x15 -1 x16 +0 x17 +0 x18 +0 x19 +17 x20 +0 x21 +12 x22 +4 x23 +0 x24 +0 x25 +7 x26 +0 x27 +0 x28 +18 x29 +0 x30 +17 x31 +0 x32 +3 x33 +20 x34 +19 x35 +1 x36 +0 x37 +6 x38 +0 x39 <= 64
  c47: +0 x0 +0 x1 +0 x2 +7 x3 +0 x4 +0 x5 +0 x6 +0 x7 +0 x8 +16 x9 +0 x10 +16 x11 +10 x12 +5 x13 +8 x14 +2 x15 +0 x16 +16 x17 +6 x18 +13 x19 +0 x20 +0 x21 +0 x22 +0 x23 +12 x24 +10 x25 +6 x26 +17 x27 +0 x28 +8 x29 +12 x30 +20 x31 +0 x32 +11 x33 +9 x34 +0 x35 +12 x36 +0 x37 +17 x38 +4 x39 <= 90
  c48: +0 x0 +7 x1 +4 x2 +0 x3 +0 x4 +14 x5 +0 x6 +0 x7 +14 x8 +0 x9 +1 x10 +0 x11 +0 x12 +0 x13 +8 x14 +0 x15 +0 x16 +0 x17 +0 x18 +0 x19 +0 x20 +0 x21 +0 x22 +8 x23 +4 x24 -1 x25 +0 x26 +0 x27 +0 x28 +0 x29 +12 x30 +2 x31 +0 x32 +0 x33 +17 x34 +0 x35 +0 x36 +0 x37 +0 x38 +9 x39 <= 64
  c49: +0 x0 +0 x1 +11 x2 +0 x3 +14 x4 +8 x5 +0 x6 +3 x7 +0 x8 +0 x9 +18 x10 +0 x11 +0 x12 +0 x13 +7 x14 +19 x15 +1 x16 +0 x17 +0 x18 +0 x19 -1 x20 +20 x21 +0 x22 +0 x23 +4 x24 +0 x25 +0 x26 +6 x27 +0 x28 +12 x29 +0 x30 +10 x31 +0 x32 +0 x33 +0 x34 +0 x35 +15 x36 +0 x37 +20 x38 +20 x39 <= 77
  c50: +0 x0 +17 x1 +0 x2 +0 x3 +0 x4 +0 x5 +0 x6 +0 x7 +0 x8 +0 x9 +0 x10 +2 x11 +0 x12 +0 x13 +10 x14 +0 x15 +0 x16 +0 x17 +17 x18 +7 x19 +4 x20 +5 x21 +19 x22 +0 x23 +16 x24 +0 x25 +0 x26 +0 x27 +0 x28 +7 x29 +0 x30 +19 x31 +0 x32 +0 x33 +0 x34 +0 x35 +10 x36 +12 x37 +0 x38 +3 x39 <= 77
  c51: +2 x0 +17 x1 +0 x2 +1 x3 +4 x4 +0 x5 +20 x6 +0 x7 +0 x8 +0 x9 +9 x10 +0 x11 +0 x12 +20 x13 +6 x14 +0 x15 +0 x16 +0 x17 +3 x18 +9 x19 +0 x20 +0 x21 +0 x22 +7 x23 +0 x24 +0 x25 +0 x26 +2 x27 +0 x28 +7 x29 +0 x30 +0 x31 +3 x32 +14 x33 +18 x34 +1 x35 +0 x36 +0 x37 -1 x38 +0 x39 <= 81
  c52: +10 x0 +0 x1 +0 x2 +0 x3 +0 x4 +0 x5 +0 x6 +15 x7 +0 x8 +0 x9 +0 x10 +0 x11 +0 x12 +0 x13 +16 x14 +7 x15 +12 x16 +0 x17 +4 x18 +12 x19 +0 x20 +6 x21 +6 x22 +7 x23 +0 x24 +0 x25 +0 x26 +6 x27 +0 x28 +8 x29 +1 x30 -1 x31 +0 x32 +5 x33 +20 x34 +5 x35 +0 x36 +0 x37 +9 x38 +18 x39 <= 57
  c53: +11 x0 +0 x1 +20 x2 +0 x3 +3 x4 +0 x5 +2 x6 +11 x7 +12 x8 +2 x9 +5 x10 +0 x11 +10 x12 +5 x13 +0 x14 +0 x15 +0 x16 +0 x17 +0 x18 +0 x19 +13 x20 +0 x21 +0 x22 +18 x23 +0 x24 +9 x25 +15 x26 +0 x27 +11 x28 +0 x29 +0 x30 +0 x31 +0 x32 +15 x33 +0 x34 +0 x35 +0 x36 +0 x37 +11 x38 +0 x39 <= 66
  c54: +0 x0 +5 x1 +0 x2 +0 x3 +0 x4 +0 x5 +0 x6 +0 x7 +0 x8 +14 x9 +0 x10 +0 x11 +4 x12 +0 x13 +5 x14 +0 x15 +4 x16 +20 x17 +0 x18 +15 x19 +19 x20 +0 x21 +0 x22 +0 x23 +0 x24 +17 x25 +0 x26 +4 x27 +0 x28 +0 x29 +8 x30 +0 x31 +0 x32 +0 x33 +16 x34 +12 x35 +0 x36 +1 x37 +18 x38 +0 x39 <= 84
  c55: +19 x0 +12 x1 +0 x2 +0 x3 +14 x4 +0 x5 +0 x6 +6 x7 +7 x8 +12 x9 +9 x10 +0 x11 +0 x12 -1 x13 +0 x14 +20 x15 +6 x16 +20 x17 +9 x18 +0 x19 +4 x20 +6 x21 +0 x22 +8 x23 +1 x24 -1 x25 +0 x26 +8 x27 +20 x28 +19 x29 +0 x30 +1 x31 +5 x32 +0 x33 +10 x34 +0 x35 +1 x36 +0 x37 +0 x38 +15 x39 <= 59
  c56: +0 x0 +8 x1 +0 x2 +0 x3 +2 x4 +0 x5 +10 x6 +0 x7 +3 x8 +0 x9 +15 x10 +0 x11 +0 x12 +0 x13 +12 x14 +0 x15 +0 x16 +3 x17 +0 x18 -1 x19 +0 x20 -1 x21 +13 x22 +0 x23 +0 x24 +2 x25 +0 x26 +0 x27 +0 x28 +0 x29 +3 x30 +17 x31 +0 x32 +13 x33 +8 x34 +14 x35 +0 x36 +0 x37 +19 x38 +0 x39 <= 52
  c57: +3 x0 +4 x1 +0 x2 +0 x3 +0 x4 +18 x5 +9 x6 +0 x7 +18 x8 +0 x9 +1 x10 +0 x11 +0 x12 +0 x13 +0 x14 +4 x15 +0 x16 +0 x17 +9 x18 +11 x19 +7 x20 +7 x21 +14 x22 +6 x23 +3 x24 +0 x25 +4 x26 +0 x27 +13 x28 +18 x29 +0 x30 +1 x31 +0 x32 +0 x33 +11 x34 +0 x35 +0 x36 +4 x37 +0 x38 +0 x39 <= 54
  c58: +1 x0 +0 x1 +0 x2 +0 x3 +5 x4 +19 x5 +0 x6 +0 x7 +0 x8 +8 x9 +0 x10 +0 x11 +0 x12 +0 x13 +0 x14 +0 x15 -1 x16 +0 x17 +0 x18 +0 x19 +0 x20 +10 x21 +0 x22 +0 x23 +0 x24 +0 x25 +5 x26 +0 x27 +9 x28 +18 x29 +1 x30 +18 x31 +0 x32 +7 x33 +0 x34 +0 x35 +0 x36 +0 x37 +0 x38 +1 x39 <= 92
  c59: +0 x0 +0 x1 +3 x2 +1 x3 +0 x4 +0 x5 +1 x6 +0 x7 +20 x8 +13 x9 +4 x10 +0 x11 +0 x12 +18 x13 +11 x14 +0 x15 +0 x16 +5 x17 -1 x18 +0 x19 +0 x20 +15 x21 +0 x22 +6 x23 +0 x24 +6 x25 +14 x26 +12 x27 +0 x28 +7 x29 +0 x30 +0 x31 +13 x32 +12 x33 +18 x34 +0 x35 +6 x36 +0 x37 +0 x38 +0 x39 <= 76
  c60: +14 x0 +13 x1 -1 x2 +12 x3 +5 x4 +8 x5 +15 x6 +0 x7 +0 x8 -1 x9 +5 x10 +0 x11 +0 x12 +0 x13 +0 x14 +13 x15 +0 x16 +0 x17 +2 x18 +0 x19 +20 x20 +17 x21 +8 x22 +12 x23 +0 x24 +0 x25 +8 x26 +20 x27 +0 x28 +0 x29 +0 x30 +5 x31 +0 x32 +0 x33 +13 x34 +0 x35 +0 x36 +0 x37 +0 x38 +0 x39 <= 64
  c61: +0 x0 +0 x1 +0 x2 +18 x3 +0 x4 +0 x5 +0 x6 +0 x7 +15 x8 -1 x9 +3 x10 +16 x11 +0 x12 +0 x13 +6 x14 +16 x15 +0 x16 +20 x17 +6 x18 +11 x19 +0 x20 +16 x21 +0 x22 -1 x23 +0 x24 +14 x25 +0 x26 +0 x27 +0 x28 +14 x29 +0 x30 +0 x31 +18 x32 +0 x33 +0 x34 +0 x35 +4 x36 +1 x37 +0 x38 +8 x39 <= 99
  c62: +9 x0 +0 x1 +0 x2 +15 x3 +0 x4 +9 x5 +10 x6 +6 x7 +5 x8 +0 x9 +19 x10 +0 x11 +0 x12 +0 x13 +6 x14 +3 x15 +0 x16 +0 x17 +17 x18 +5 x19 +0 x20 +12 x21 +0 x22 +16 x23 +14 x24 +11 x25 +15 x26 +10 x27 +10 x28 +0 x29 +0 x30 +0 x31 -1 x32 +0 x33 +17 x34 +10 x35 +12 x36 +20 x37 +0 x38 +8 x39 <= 87
  c63: +3 x0 +0 x1 +0 x2 +0 x3 +16 x4 +0 x5 +0 x6 +0 x7 +0 x8 +0 x9 +0 x10 +0 x11 +15 x12 +0 x13 +11 x14 +10 x15 +17 x16 -1 x17 +0 x18 +1 x19 +0 x20 +2 x21 +0 x22 +13 x23 +19 x24 +0 x25 +14 x26 +8 x27 +11 x28 +0 x29 +0 x30 +0 x31 +0 x32 +0 x33 +0 x34 +0 x35 +0 x36 +13 x37 +0 x38 +8 x39 <= 98
  c64: +12 x0 +9 x1 +0 x2 -1 x3 +7 x4 +15 x5 +0 x6 +16 x7 +0 x8 +0 x9 +4 x10 +0 x11 +0 x12 +0 x13 +0 x14 +0 x15 +17 x16 +16 x17 +11 x18 +0 x19 +0 x20 +0 x21 +0 x22 +9 x23 +11 x24 +0 x25 +5 x26 +2 x27 +0 x28 +14 x29 +7 x30 +0 x31 +11 x32 +0 x33 +0 x34 +0 x35 -1 x36 +5 x37 +0 x38 +8 x39 <= 88
  c65: +20 x0 +0 x1 -1 x2 +2 x3 +0 x4 +0 x5 +0 x6 +5 x7 +11 x8 +0 x9 +0 x10 +5 x11 +0 x12 +11 x13 +17 x14 +0 x15 +20 x16 +0 x17 +2 x18 +0 x19 +4 x20 +13 x21 +0 x22 +12 x23 +0 x24 +12 x25 -1 x26 +0 x27 +3 x28 +0 x29 +5 x30 +0 x31 +0 x32 +7 x33 +14 x34 +0 x35 +17 x36 +9 x37 +0 x38 +0 x39 <= 65
  c66: +20 x0 +0 x1 +19 x2 -1 x3 +0 x4 +0 x5 +0 x6 +0 x7 +20 x8 +6 x9 +0 x10 +18 x11 +16 x12 +0 x13 +0 x14 +0 x15 +12 x16 +15 x17 +0 x18 +2 x19 +0 x20 +0 x21 +0 x22 +2 x23 +0 x24 +1 x25 +6 x26 +17 x27 +13 x28 +15 x29 +9 x30 +0 x31 +5 x32 +17 x33 +9 x34 +16 x35 +11 x36 +0 x37 +0 x38 +11 x39 <= 82
  c67: +15 x0 +17 x1 +0 x2 +0 x3 +3 x4 +12 x5 +20 x6 +14 x7 +20 x8 +0 x9 +0 x10 +19 x11 +20 x12 +0 x13 +19 x14 +15 x15 +0 x16 +0 x17 +0 x18 +0 x19 +20 x20 +3 x21 +0 x22 +5 x23 +14 x24 +0 x25 +2 x26 +0 x27 +20 x28 +5 x29 +0 x30 +12 x31 +2 x32 +10 x33 +2 x34 +2 x35 +3 x36 +0 x37 +0 x38 +12 x39 <= 89
  c68: +0 x0 +12 x1 +0 x2 +15 x3 +0 x4 +5 x5 +3 x6 +18 x7 +13 x8 +0 x9 +9 x10 +9 x11 +0 x12 +0 x13 +0 x14 +12 x15 +0 x16 +0 x17 +0 x18 +0 x19 +15 x20 +0 x21 +0 x22 +0 x23 +0 x24 +15 x25 +0 x26 +0 x27 +0 x28 +0 x29 +14 x30 +0 x31 +14 x32 +8 x33 +0 x34 +2 x35 +7 x36 +12 x37 +16 x38 +5 x39 <= 56
  c69: +1 x0 +0 x1 +0 x2 +0 x3 +3 x4 +20 x5 +0 x6 +6 x7 +0 x8 +13 x9 +7 x10 +12 x11 +0 x12 +0 x13 +13 x14 +20 x15 +0 x16 +20 x17 +13 x18 +16 x19 +18 x20 +0 x21 +6 x22 +2 x23 +0 x24 +0 x25 +0 x26 +11 x27 +18 x28 +7 x29 +7 x30 +0 x31 +0 x32 +19 x33 +5 x34 +17 x35 +0 x36 +7 x37 +16 x38 +0 x39 <= 58
  c70: +0 x0 +13 x1 +0 x2 +6 x3 +0 x4 +9 x5 +0 x6 +6 x7 +2 x8 +0 x9 +15 x10 +0 x11 +0 x12 +0 x13 +0 x14 +17 x15 +1 x16 +0 x17 +6 x18 +0 x19 -1 x20 +0 x21 -1 x22 +0 x23 +7 x24 +3 x25 +0 x26 +0 x27 +0 x28 +15 x29 +10 x30 +0 x31 +0 x32 +8 x33 +0 x34 +0 x35 +0 x36 +0 x37 +15 x38 +8 x39 <= 51
  c71: +0 x0 +12 x1 +0 x2 +19 x3 +20 x4 +16 x5 +9 x6 -1 x7 +3 x8 +0 x9 +19 x10 +0 x11 +0 x12 +14 x13 +15 x14 +13 x15 +3 x16 -1 x17 +0 x18 +0 x19 +0 x20 +0 x21 +4 x22 +0 x23 +14 x24 +15 x25 +0 x26 +0 x27 +0 x28 +1 x29 +0 x30 +0 x31 +20 x32 +6 x33 +16 x34 +0 x35 +7 x36 +0 x37 +8 x38 +0 x39 <= 52
  c72: +17 x0 +5 x1 +0 x2 +0 x3 +0 x4 +0 x5 +17 x6 +16 x7 +0 x8 +6 x9 +0 x10 +0 x11 +0 x12 +0 x13 +6 x14 +6 x15 +0 x16 +0 x17 +16 x18 +19 x19 +0 x20 +0 x21 +0 x22 +0 x23 +2 x24 +9 x25 +0 x26 +0 x27 +0 x28 -1 x29 +6 x30 +0 x31 +0 x32 +5 x33 +0 x34 +0 x35 +0 x36 +8 x37 +0 x38 +0 x39 <= 60
  c73: +0 x0 +0 x1 +0 x2 +6 x3 +0 x4 +7 x5 +15 x6 +2 x7 +10 x8 +0 x9 +10 x10 +0 x11 +0 x12 +0 x13 -1 x14 +0 x15 +0 x16 +0 x17 +6 x18 +12 x19 +4 x20 +0 x21 +18 x22 +17 x23 +0 x24 +0 x25 +0 x26 +0 x27 +0 x28 +16 x29 +1 x30 +0 x31 +0 x32 +10 x33 +13 x34 +10 x35 +0 x36 +0 x37 +10 x38 +0 x39 <= 90
  c74: +0 x0 +0 x1 +0 x2 +19 x3 +0 x4 +4 x5 +0 x6 +0 x7 +4 x8 +0 x9 +7 x10 -1 x11 +0 x12 +0 x13 +0 x14 +0 x15 +0 x16 +0 x17 +0 x18 +0 x19 +20 x20 +2 x21 +0 x22 +0 x23 +19 x24 +0 x25 +0 x26 +0 x27 +0 x28 +10 x29 +0 x30 +0 x31 +0 x32 +15 x33 +0 x34 +19 x35 +8 x36 +0 x37 +20 x38 +0 x39 <= 85
  c75: +0 x0 +19 x1 +0 x2 +0 x3 +0 x4 +0 x5 +4 x6 +17 x7 +14 x8 +6 x9 +4 x10 +0 x11 +9 x12 +10 x13 +20 x14 +0 x15 +5 x16 +6 x17 +18 x18 +20 x19 +0 x20 +0 x21 +0 x22 +6 x23 +0 x24 +0 x25 +0 x26 +20 x27 +0 x28 +9 x29 +20 x30 +0 x31 +0 x32 +17 x33 +17 x34 +0 x35 +11 x36 +6 x37 +11 x38 +8 x39 <= 94
  c76: +11 x0 +0 x1 +7 x2 +0 x3 +0 x4 +0 x5 +0 x6 +14 x7 +12 x8 +12 x9 +0 x10 +0 x11 +3 x12 -1 x13 +0 x14 +0 x15 +0 x16 +4 x17 +14 x18 +0 x19 +0 x20 +6 x21 +5 x22 +14 x23 +0 x24 +14 x25 +0 x26 +0 x27 +0 x28 +14 x29 +0 x30 +0 x31 +11 x32 +2 x33 +9 x34 +0 x35 +0 x36 +0 x37 +0 x38 +4 x39 <= 93
  c77: +20 x0 +0 x1 +0 x2 +0 x3 +2 x4 +0 x5 +0 x6 +0 x7 +19 x8 +19 x9 +4 x10 +0 x11 +7 x12 +10 x13 +15 x14 +0 x15 +7 x16 +0 x17 +0 x18 +0 x19 +0 x20 +6 x21 +15 x22 +0 x23 +15 x24 +5 x25 +11 x26 +10 x27 +0 x28 +15 x29 +6 x30 +0 x31 +0 x32 +0 x33 -1 x34 +16 x35 +12 x36 +14 x37 +17 x38 +0 x39 <= 99
  c78: +0 x0 +12 x1 +0 x2 +0 x3 +14 x4 +5 x5 +12 x6 +10 x7 +1 x8 +16 x9 +0 x10 +0 x11 +0 x12 +0 x13 +9 x14 +0 x15 +4 x16 +0 x17 +20 x18 +0 x19 +0 x20 +0 x21 +20 x22 +8 x23 +0 x24 +14 x25 +0 x26 +0 x27 +0 x28 +0 x29 +0 x30 +0 x31 +15 x32 +0 x33 +9 x34 +19 x35 +0 x36 +3 x37 +12 x38 +0 x39 <= 57
  c79: +4 x0 +7 x1 +0 x2 +0 x3 +0 x4 +0 x5 +19 x6 +5 x7 +0 x8 +18 x9 +4 x10 +0 x11 +0 x12 +0 x13 +10 x14 +10 x15 +0 x16 +0 x17 +0 x18 +0 x19 +0 x20 +0 x21 +0 x22 +0 x23 +15 x24 +18 x25 +0 x26 +4 x27 +0 x28 +0 x29 +15 x30 +0 x31 +0 x32 +0 x33 +0 x34 +0 x35 +0 x36 +0 x37 +0 x38 +0 x39 <= 57
  c80: + x40 + x41 + x42 + x43 + x44 + x45 + x46 + x47 + x48 + x49 + x50 + x51 + x52 + x53 + x54 + x55 + x56 + x57 + x58 + x59 + x60 + x61 + x62 + x63 + x64 + x65 + x66 + x67 + x68 + x69 + x70 + x71 + x72 + x73 + x74 + x75 + x76 + x77 + x78 + x79 <= 13.333333
Binary
 x40
 x41
 x42
 x43
 x44
 x45
 x46
 x47
 x48
 x49
 x50
 x51
 x52
 x53
 x54
 x55
 x56
 x57
 x58
 x59
 x60
 x61
 x62
 x63
 x64
 x65
 x66
 x67
 x68
 x69
 x70
 x71
 x72
 x73
 x74
 x75
 x76
 x77
 x78
 x79
End
